nN = 5;
nR = 20;
nH = 2;

a = [[21, 23, 20, 11, 11, 17, 14, 15, 16, 22, 18, 17, 10, 12, 14, 11, 18, 13, 11, 25], [23, 17, 16, 18, 13, 21, 14, 13, 20, 14, 25, 10, 17, 14, 20, 20, 21, 22, 22, 20], [22, 20, 12, 22, 13, 13, 16, 22, 22, 10, 18, 13, 13, 11, 19, 13, 20, 10, 16, 19], [11, 10, 23, 19, 18, 21, 17, 11, 10, 21, 19, 22, 18, 22, 17, 21, 15, 10, 24, 24], [18, 22, 23, 19, 15, 12, 14, 13, 12, 22, 21, 15, 12, 11, 21, 20, 22, 13, 11, 21]];
c = [[[0, 0, 0, 0, 0, 0, 0, 0, 0, 0, 0, 0, 0, 0, 0, 0, 0, 0, 0, 0], [44, 30, 46, 48, 35, 40, 47, 38, 30, 49, 48, 46, 37, 44, 46, 46, 38, 30, 42, 49], [39, 47, 41, 38, 42, 47, 36, 34, 46, 32, 44, 48, 39, 38, 36, 50, 30, 44, 42, 47], [38, 33, 50, 43, 48, 35, 39, 45, 46, 40, 32, 32, 37, 49, 47, 39, 46, 30, 50, 46], [35, 39, 30, 40, 32, 35, 43, 48, 50, 37, 35, 47, 32, 48, 37, 32, 39, 46, 42, 41]], [[0, 0, 0, 0, 0, 0, 0, 0, 0, 0, 0, 0, 0, 0, 0, 0, 0, 0, 0, 0], [0, 0, 0, 0, 0, 0, 0, 0, 0, 0, 0, 0, 0, 0, 0, 0, 0, 0, 0, 0], [36, 42, 39, 38, 48, 34, 42, 37, 47, 32, 42, 42, 42, 50, 43, 47, 48, 38, 37, 30], [36, 34, 49, 45, 41, 41, 33, 47, 32, 48, 39, 35, 44, 49, 37, 35, 49, 35, 43, 42], [42, 32, 31, 31, 34, 33, 39, 50, 49, 40, 38, 31, 35, 46, 42, 32, 36, 33, 30, 38]], [[0, 0, 0, 0, 0, 0, 0, 0, 0, 0, 0, 0, 0, 0, 0, 0, 0, 0, 0, 0], [0, 0, 0, 0, 0, 0, 0, 0, 0, 0, 0, 0, 0, 0, 0, 0, 0, 0, 0, 0], [0, 0, 0, 0, 0, 0, 0, 0, 0, 0, 0, 0, 0, 0, 0, 0, 0, 0, 0, 0], [42, 30, 37, 40, 42, 47, 42, 37, 35, 49, 45, 48, 46, 49, 34, 47, 44, 35, 35, 39], [40, 32, 50, 44, 46, 50, 42, 50, 45, 37, 36, 33, 48, 37, 50, 31, 30, 30, 31, 35]], [[0, 0, 0, 0, 0, 0, 0, 0, 0, 0, 0, 0, 0, 0, 0, 0, 0, 0, 0, 0], [0, 0, 0, 0, 0, 0, 0, 0, 0, 0, 0, 0, 0, 0, 0, 0, 0, 0, 0, 0], [0, 0, 0, 0, 0, 0, 0, 0, 0, 0, 0, 0, 0, 0, 0, 0, 0, 0, 0, 0], [0, 0, 0, 0, 0, 0, 0, 0, 0, 0, 0, 0, 0, 0, 0, 0, 0, 0, 0, 0], [32, 43, 50, 46, 42, 30, 38, 32, 49, 43, 34, 47, 44, 36, 35, 33, 36, 38, 33, 33]], [[0, 0, 0, 0, 0, 0, 0, 0, 0, 0, 0, 0, 0, 0, 0, 0, 0, 0, 0, 0], [0, 0, 0, 0, 0, 0, 0, 0, 0, 0, 0, 0, 0, 0, 0, 0, 0, 0, 0, 0], [0, 0, 0, 0, 0, 0, 0, 0, 0, 0, 0, 0, 0, 0, 0, 0, 0, 0, 0, 0], [0, 0, 0, 0, 0, 0, 0, 0, 0, 0, 0, 0, 0, 0, 0, 0, 0, 0, 0, 0], [0, 0, 0, 0, 0, 0, 0, 0, 0, 0, 0, 0, 0, 0, 0, 0, 0, 0, 0, 0]]];

q = [[[14, 110], [12, 120], [6, 110], [18, 106], [9, 110], [12, 121], [19, 115], [7, 112], [22, 109], [19, 114], [7, 124], [6, 108], [25, 125], [10, 106], [13, 110], [7, 109], [24, 105], [17, 105], [12, 122], [6, 106]], [[15, 108], [19, 111], [25, 125], [17, 120], [16, 116], [7, 125], [8, 125], [21, 121], [21, 121], [5, 107], [8, 106], [13, 111], [16, 108], [24, 119], [15, 123], [14, 123], [8, 116], [7, 107], [18, 105], [18, 114]], [[17, 110], [15, 120], [23, 125], [14, 110], [24, 108], [10, 113], [15, 119], [17, 107], [8, 117], [23, 112], [16, 117], [23, 119], [25, 116], [13, 125], [24, 113], [17, 119], [6, 115], [14, 112], [7, 105], [21, 110]], [[24, 123], [23, 124], [19, 122], [15, 108], [15, 122], [13, 121], [6, 114], [12, 118], [21, 124], [21, 115], [16, 115], [5, 110], [8, 107], [11, 111], [9, 120], [9, 118], [23, 107], [11, 114], [8, 117], [11, 111]], [[25, 107], [11, 114], [15, 123], [11, 123], [9, 124], [18, 116], [10, 115], [23, 121], [9, 110], [7, 117], [19, 116], [14, 115], [7, 117], [6, 122], [22, 115], [17, 108], [7, 109], [7, 121], [5, 124], [13, 105]]];
Q = [[43, 360], [47, 370], [54, 367], [45, 372], [42, 372]];
